(set-logic QF_SLIA)
(declare-fun var0 () String)
(assert (str.in_re var0 (re.++ ((_ re.loop 4 134) (re.++ (re.union (str.to_re "F") (re.union (str.to_re "7") (re.union (str.to_re "tw") (str.to_re "5!t")))) (re.++ (re.union (str.to_re "0") (re.union (str.to_re "q") (re.union (str.to_re "Y") (str.to_re "u")))) (re.++ (re.union (str.to_re "O") (re.union (str.to_re "N") (re.union (str.to_re "jf]") (str.to_re "]^")))) (re.union (str.to_re "SN&") (re.union (str.to_re ",-i") (re.union (str.to_re "g!@") (str.to_re "1")))))))) (re.++ ((_ re.loop 11 863) (re.++ (re.union (str.to_re "Z=") (re.union (str.to_re "n") (re.union (str.to_re "v") (str.to_re "=")))) (re.++ (re.union (str.to_re "K2") (re.union (str.to_re "'U") (re.union (str.to_re "u") (str.to_re "6c")))) (re.++ (re.union (str.to_re "Z<x") (re.union (str.to_re "i@#") (re.union (str.to_re "h") (str.to_re "7^")))) (re.union (str.to_re "v") (re.union (str.to_re "m") (re.union (str.to_re "2oB") (str.to_re "aB2")))))))) (re.++ ((_ re.loop 0 412) (re.++ (re.union (str.to_re "aO-") (re.union (str.to_re "k9") (re.union (str.to_re "8+}") (str.to_re "'qi")))) (re.++ (re.union (str.to_re "7") (re.union (str.to_re "F3Q") (re.union (str.to_re ";") (str.to_re "k")))) (re.++ (re.union (str.to_re "L!") (re.union (str.to_re "W") (re.union (str.to_re "\u0022") (str.to_re "O")))) (re.union (str.to_re "Z\\") (re.union (str.to_re "F") (re.union (str.to_re "Bi") (str.to_re "OE^")))))))) ((_ re.loop 2 507) (re.++ (re.union (str.to_re "-") (re.union (str.to_re "M") (re.union (str.to_re "abm") (str.to_re "cb")))) (re.++ (re.union (str.to_re "RFn") (re.union (str.to_re "06,") (re.union (str.to_re "Mb") (str.to_re "A")))) (re.++ (re.union (str.to_re "\\T") (re.union (str.to_re "j") (re.union (str.to_re "a'") (str.to_re "G:")))) (re.union (str.to_re "y#Q") (re.union (str.to_re "\\}") (re.union (str.to_re "Hm") (str.to_re "~")))))))))))))
(assert (not (str.in_re var0 (re.++ ((_ re.loop 5 255) (re.++ (re.union (str.to_re "F") (re.union (str.to_re "pVa") (re.union (str.to_re "/") (str.to_re "]")))) (re.++ (re.union (str.to_re "y") (re.union (str.to_re "`") (re.union (str.to_re "r") (str.to_re "5T$")))) (re.++ (re.union (str.to_re "8-") (re.union (str.to_re "&qq") (re.union (str.to_re "%~k") (str.to_re "+{")))) (re.union (str.to_re "V=") (re.union (str.to_re "MQ[") (re.union (str.to_re "(uB") (str.to_re "T;Q")))))))) (re.++ ((_ re.loop 17 961) (re.++ (re.union (str.to_re "ys") (re.union (str.to_re "[}") (re.union (str.to_re "a<") (str.to_re "V")))) (re.++ (re.union (str.to_re "q`]") (re.union (str.to_re "?") (re.union (str.to_re ",") (str.to_re "\u0022QF")))) (re.++ (re.union (str.to_re "zR1") (re.union (str.to_re "k") (re.union (str.to_re "m") (str.to_re "s]5")))) (re.union (str.to_re "Xn") (re.union (str.to_re ".") (re.union (str.to_re "F:m") (str.to_re "c;")))))))) (re.++ ((_ re.loop 11 962) (re.++ (re.union (str.to_re "/M\\") (re.union (str.to_re "o&") (re.union (str.to_re "iH") (str.to_re "Wf")))) (re.++ (re.union (str.to_re "=") (re.union (str.to_re "/Qy") (re.union (str.to_re "j_") (str.to_re "f%R")))) (re.++ (re.union (str.to_re "\u0022F+") (re.union (str.to_re "vMT") (re.union (str.to_re "\\}n") (str.to_re "J>G")))) (re.union (str.to_re ",Q") (re.union (str.to_re "q") (re.union (str.to_re "5W") (str.to_re "zn$")))))))) ((_ re.loop 8 893) (re.++ (re.union (str.to_re "f}") (re.union (str.to_re "\u0022U") (re.union (str.to_re "b9s") (str.to_re "=F;")))) (re.++ (re.union (str.to_re "UX") (re.union (str.to_re "B") (re.union (str.to_re "ic") (str.to_re "oqX")))) (re.++ (re.union (str.to_re "``") (re.union (str.to_re "4S(") (re.union (str.to_re ";MV") (str.to_re "+cW")))) (re.union (str.to_re "Cu+") (re.union (str.to_re "aG") (re.union (str.to_re "&") (str.to_re "s0"))))))))))))))
(assert (not (str.in_re var0 (re.++ (re.* re.allchar) (re.++ (re.union (str.to_re "<") (re.union (str.to_re ">") (re.union (str.to_re "'") (re.union (str.to_re "\u0022") (str.to_re "&"))))) (re.* re.allchar))))))
(assert (<= 50 (str.len var0)))
(check-sat)
(get-model)
